c A SAT instance generated from a 3-CNF formula that had 48 clauses and 12 variables
p cnf 12 48
11 -6 -12 0
-11 -7 12 0
10 -11 2 0
-6 -5 10 0
11 1 -8 0
2 -11 7 0
-8 -3 7 0
12 10 11 0
-6 -7 -1 0
-2 10 -8 0
-6 -9 -5 0
10 3 -1 0
3 4 11 0
9 2 7 0
3 -1 -6 0
3 -7 -10 0
-2 5 3 0
12 11 -8 0
-11 -7 3 0
6 12 -2 0
9 -8 -7 0
-1 3 -9 0
-9 -4 -8 0
-2 9 -3 0
8 1 -5 0
9 -2 1 0
6 -2 -9 0
-4 9 -6 0
-4 -3 7 0
-10 -3 12 0
12 4 7 0
-8 1 -7 0
-4 5 3 0
3 -1 12 0
8 -2 -7 0
-12 11 -5 0
-3 7 1 0
-10 -1 -5 0
9 8 -5 0
-7 6 1 0
-2 1 3 0
-10 3 12 0
-11 -5 -10 0
7 12 4 0
12 -1 -8 0
-5 -8 2 0
-5 2 1 0
-7 -3 -9 0
